2 100 735 105
0 35.0 35.0 0.0 0.0 0 230
2 41.0 49.0 10.0 10.0 133 198 1 5
3 35.0 17.0 10.0 7.0 22 87 2 5
4 55.0 45.0 10.0 13.0 98 143 3 5
5 55.0 20.0 10.0 19.0 123 184 4 5
6 15.0 30.0 10.0 26.0 20 93 5 5
7 25.0 30.0 10.0 3.0 76 131 6 10
8 20.0 50.0 10.0 5.0 61 110 7 10
9 10.0 43.0 10.0 9.0 75 124 8 10
10 55.0 60.0 10.0 16.0 74 129 9 10
11 30.0 60.0 10.0 16.0 107 150 10 10
12 20.0 65.0 10.0 12.0 42 101 11 15
13 50.0 35.0 10.0 19.0 38 97 12 15
14 30.0 25.0 10.0 23.0 131 196 13 15
15 15.0 10.0 10.0 20.0 32 114 14 15
16 30.0 5.0 10.0 8.0 35 96 15 15
17 10.0 20.0 10.0 19.0 52 107 16 5
18 5.0 30.0 10.0 2.0 124 189 17 5
19 20.0 40.0 10.0 12.0 69 114 18 5
20 15.0 60.0 10.0 17.0 52 109 19 5
21 45.0 65.0 10.0 9.0 105 156 20 5
22 45.0 20.0 10.0 11.0 37 96 21 10
23 45.0 10.0 10.0 18.0 76 127 22 10
24 55.0 5.0 10.0 29.0 43 102 23 10
25 65.0 35.0 10.0 3.0 124 190 24 10
26 65.0 20.0 10.0 6.0 121 186 25 10
27 45.0 30.0 10.0 17.0 112 161 26 15
28 35.0 40.0 10.0 16.0 8 75 27 15
29 41.0 37.0 10.0 16.0 11 76 28 15
30 64.0 42.0 10.0 9.0 37 98 29 15
31 40.0 60.0 10.0 21.0 49 102 30 15
32 31.0 52.0 10.0 27.0 24 85 31 5
33 35.0 69.0 10.0 23.0 116 175 32 5
34 53.0 52.0 10.0 11.0 24 92 33 5
35 65.0 55.0 10.0 14.0 96 147 34 5
36 63.0 65.0 10.0 8.0 116 178 35 5
37 2.0 60.0 10.0 5.0 41 112 36 10
38 20.0 20.0 10.0 8.0 113 164 37 10
39 5.0 5.0 10.0 16.0 60 115 38 10
40 60.0 12.0 10.0 31.0 33 110 39 10
41 40.0 25.0 10.0 9.0 65 114 40 10
42 42.0 7.0 10.0 5.0 72 131 41 15
43 24.0 12.0 10.0 5.0 25 91 42 15
44 23.0 3.0 10.0 7.0 111 162 43 15
45 11.0 14.0 10.0 18.0 45 102 44 15
46 6.0 38.0 10.0 16.0 29 99 45 15
47 2.0 48.0 10.0 1.0 92 151 46 5
48 8.0 56.0 10.0 27.0 34 105 47 5
49 13.0 52.0 10.0 36.0 128 192 48 5
50 6.0 68.0 10.0 30.0 93 132 49 5
51 47.0 47.0 10.0 13.0 102 155 50 5
52 49.0 58.0 10.0 10.0 64 121 51 10
53 27.0 43.0 10.0 9.0 26 87 52 10
54 37.0 31.0 10.0 14.0 75 124 53 10
55 57.0 29.0 10.0 18.0 118 171 54 10
56 63.0 23.0 10.0 2.0 111 170 55 10
57 53.0 12.0 10.0 6.0 106 163 56 15
58 32.0 12.0 10.0 7.0 77 134 57 15
59 36.0 26.0 10.0 18.0 147 210 58 15
60 21.0 24.0 10.0 28.0 17 100 59 15
61 17.0 34.0 10.0 3.0 134 199 60 15
62 12.0 24.0 10.0 13.0 55 106 61 5
63 24.0 58.0 10.0 19.0 30 95 62 5
64 27.0 69.0 10.0 10.0 34 103 63 5
65 15.0 77.0 10.0 9.0 48 107 64 5
66 62.0 77.0 10.0 20.0 49 113 65 5
67 49.0 73.0 10.0 25.0 104 159 66 10
68 67.0 5.0 10.0 25.0 59 116 67 10
69 56.0 39.0 10.0 36.0 117 176 68 10
70 37.0 47.0 10.0 6.0 23 86 69 10
71 37.0 56.0 10.0 5.0 123 198 70 10
72 57.0 68.0 10.0 15.0 54 109 71 15
73 47.0 16.0 10.0 25.0 22 96 72 15
74 44.0 17.0 10.0 9.0 56 109 73 15
75 46.0 13.0 10.0 8.0 123 184 74 15
76 49.0 11.0 10.0 18.0 45 102 75 15
77 49.0 42.0 10.0 13.0 52 103 76 5
78 53.0 43.0 10.0 14.0 136 200 77 5
79 61.0 52.0 10.0 3.0 71 130 78 5
80 57.0 48.0 10.0 23.0 72 121 79 5
81 56.0 37.0 10.0 6.0 135 198 80 5
82 55.0 54.0 10.0 26.0 78 119 81 10
83 15.0 47.0 10.0 16.0 29 90 82 10
84 14.0 37.0 10.0 11.0 21 89 83 10
85 11.0 31.0 10.0 7.0 81 130 84 10
86 16.0 22.0 10.0 41.0 70 121 85 10
87 4.0 18.0 10.0 35.0 74 123 86 15
88 28.0 18.0 10.0 26.0 79 116 87 15
89 26.0 52.0 10.0 9.0 50 107 88 15
90 26.0 35.0 10.0 15.0 139 211 89 15
91 31.0 67.0 10.0 3.0 73 126 90 15
92 15.0 19.0 10.0 1.0 132 194 91 5
93 22.0 22.0 10.0 2.0 18 88 92 5
94 18.0 24.0 10.0 22.0 129 199 93 5
95 26.0 27.0 10.0 27.0 81 128 94 5
96 25.0 24.0 10.0 20.0 14 78 95 5
97 22.0 27.0 10.0 11.0 114 165 96 10
98 25.0 21.0 10.0 12.0 115 160 97 10
99 19.0 21.0 10.0 10.0 32 93 98 10
100 20.0 26.0 10.0 9.0 60 115 99 10
101 18.0 18.0 10.0 17.0 123 195 100 10